0 1 4 2 9 2 9 8 5 1 3
1 0 9 5 1 6 5 1 8 8 5
4 9 0 6 3 4 5 1 9 5 4
2 5 6 0 3 5 7 3 9 2 7
9 1 3 3 0 9 5 4 7 5 1
2 6 4 5 9 0 6 8 3 5 3
9 5 5 7 5 6 0 5 6 9 3
8 1 1 3 4 8 5 0 9 9 9
5 8 9 9 7 3 6 9 0 7 9
1 8 5 2 5 5 9 9 7 0 8
3 5 4 7 1 3 3 9 9 8 0
